phase2/problem_log/problem980.sol
# Solution for model Resale_Solver
# Objective value = 1000
list[0] 0
list[1] 0
list[2] 0
list[3] 0
list[4] 0
list[5] 0
list[6] 0
list[7] 0
list[8] 0
list[9] 0
list[10] 0
list[11] 0
list[12] 0
list[13] 0
list[14] 0
list[15] 0
list[16] 0
list[17] 0
indicator[0] 0
indicator[1] 0
indicator[2] 0
indicator[3] 0
